p tw 17 45
1 2
1 15
1 16
1 17
1 8
2 15
2 16
2 3
2 10
11 13
12 14
14 16
15 17
3 11
3 15
3 4
3 9
3 10
4 11
4 12
4 5
4 10
5 11
5 12
5 13
5 6
6 12
6 13
6 14
6 7
7 13
7 14
7 17
7 8
7 9
8 14
8 16
8 17
9 11
9 13
9 15
9 17
10 12
10 14
10 16
